EjemplosDeGrafos/ficheros/flow3.lp
Maximize

y_0_1 + y_0_2


Subject To

a0: y_0_1 + y_3_1 - y_1_2 - y_1_5 = 0
a1: y_0_2 + y_1_2 + y_4_2 - y_2_0 - y_2_3 = 0
a2: y_2_3 - y_3_1 - y_3_5 = 0
a3:  - y_4_0 - y_4_2 = 0



Bounds

y_0_1 <= 12.0
y_0_2 <= 10.0
y_1_2 <= 9.0
y_1_5 <= 20.0
y_2_0 <= 4.0
y_2_3 <= 14.0
y_3_1 <= 7.0
y_3_5 <= 4.0
y_4_0 <= 16.0
y_4_2 <= 13.0
y_0_1 >= 0.0
y_0_2 >= 0.0
y_1_2 >= 0.0
y_1_5 >= 0.0
y_2_0 >= 0.0
y_2_3 >= 0.0
y_3_1 >= 0.0
y_3_5 >= 4.0
y_4_0 >= 0.0
y_4_2 >= 0.0



 
End
