EjemplosDeGrafos/ficheros/flow3.txt
#VERTEX#
A,Intermediate,0,inf,0,A
B,Intermediate,0,inf,0,B
C,Intermediate,0,inf,0,C
D,Intermediate,5.,5.,2.5,D
S,Source,0.,inf,1.,S
T,Sink,0.,inf,-1.,T
#EDGE#
A,C,0.,10.,1.,A22
A,B,0.,12.,0.,C56
B,C,0.,9.,1.,D9
C,D,0.,14.,1.,D7
S,A,0.,16.,1.,D10
S,C,0.,13.,1.,D5
B,T,0.,20.,1.,A23
D,T,4.,4.,1.,F56